problems/VanDerWaerdenNumbers/VanDerWaerden-models/noch/O2/lingeling/model_2-k3l4n30-solution000001.eprime-solution
language ESSENCE' 1.0

letting p_PartitionAsSet_ExplicitR6_ExplicitVarSizeWithDummy be
        [[1, 4, 5, 7, 8, 9, 15, 17, 18, 19, 24, 26, 27, 29, 30, 31, 31, 31, 31, 31, 31, 31, 31, 31, 31, 31, 31, 31, 31,
          31; int(1..30)],
         [2, 10, 11, 13, 14, 16, 20, 21, 23, 25, 31, 31, 31, 31, 31, 31, 31, 31, 31, 31, 31, 31, 31, 31, 31, 31, 31, 31,
          31, 31; int(1..30)],
         [3, 6, 12, 22, 28, 31, 31, 31, 31, 31, 31, 31, 31, 31, 31, 31, 31, 31, 31, 31, 31, 31, 31, 31, 31, 31, 31, 31,
          31, 31; int(1..30)]; int(1..3)]
